NAME: line_20_8
TYPE: TSP
COMMENT: line_20_8
DIMENSION: 20
EDGE_WEIGHT_TYPE: EUC_2D
NODE_COORD_SECTION
1 0.0 74.0
2 0.0 16.0
3 0.0 52.0
4 0.0 14.0
5 0.0 135.0
6 0.0 96.0
7 0.0 24.0
8 0.0 168.0
9 0.0 105.0
10 0.0 14.0
11 0.0 44.0
12 0.0 132.0
13 0.0 40.0
14 0.0 83.0
15 0.0 53.0
16 0.0 186.0
17 0.0 186.0
18 0.0 167.0
19 0.0 118.0
20 0.0 162.0
